
Gurobi 11.0.3 (linux64) logging started Mon 18 Nov 2024 08:12:52 PM CST

Set parameter LogFile to value "/home/dlcole3/graph_abstraction/hierarchical_graphs/git_storage/CS1/HP_low_reserves/gurobi_logs/serial/logfile_ST7_2.log"

Gurobi 11.0.3 (linux64) logging started Mon 18 Nov 2024 08:13:54 PM CST

Set parameter LogFile to value "/home/dlcole3/graph_abstraction/hierarchical_graphs/git_storage/CS1/HP_low_reserves/gurobi_logs/serial/logfile_ST7_2.log"
Gurobi Optimizer version 11.0.3 build v11.0.3rc0 (linux64 - "Ubuntu 18.04.3 LTS")

CPU model: Intel(R) Xeon(R) CPU E5-2698 v4 @ 2.20GHz, instruction set [SSE2|AVX|AVX2]
Thread count: 40 physical cores, 80 logical processors, using up to 20 threads

Optimize a model with 29168 rows, 50688 columns and 136175 nonzeros
Model fingerprint: 0x882bba3e
Variable types: 46944 continuous, 3744 integer (3744 binary)
Coefficient statistics:
  Matrix range     [6e-01, 2e+04]
  Objective range  [2e+00, 2e+04]
  Bounds range     [5e-02, 2e+05]
  RHS range        [5e-02, 7e+03]
Presolve removed 14211 rows and 38577 columns
Presolve time: 0.36s
Presolved: 14957 rows, 12111 columns, 64293 nonzeros
Variable types: 9047 continuous, 3064 integer (3064 binary)
Found heuristic solution: objective 182352.49057
Found heuristic solution: objective 179678.28063
Found heuristic solution: objective 153204.52842

Root relaxation: objective 5.083574e+04, 7669 iterations, 0.27 seconds (0.20 work units)

    Nodes    |    Current Node    |     Objective Bounds      |     Work
 Expl Unexpl |  Obj  Depth IntInf | Incumbent    BestBd   Gap | It/Node Time

     0     0 50835.7450    0    5 153204.528 50835.7450  66.8%     -    1s
H    0     0                    93126.849927 50835.7450  45.4%     -    1s
H    0     0                    93126.849903 50835.7450  45.4%     -    1s
     0     0 50835.7450    0   10 93126.8499 50835.7450  45.4%     -    1s
H    0     0                    57183.945677 50835.7450  11.1%     -    1s
H    0     0                    57175.005907 50835.7450  11.1%     -    1s
H    0     0                    54985.232008 50835.7450  7.55%     -    1s
H    0     0                    53572.070459 50944.5222  4.90%     -    1s
     0     0 50944.5222    0   21 53572.0705 50944.5222  4.90%     -    1s
H    0     0                    51279.986992 50944.5222  0.65%     -    1s
     0     0 51035.8721    0    1 51279.9870 51035.8721  0.48%     -    2s
H    0     0                    51279.986980 51035.8721  0.48%     -    2s
     0     0 51035.8721    0    2 51279.9870 51035.8721  0.48%     -    2s
     0     0 51035.8721    0   19 51279.9870 51035.8721  0.48%     -    2s
H    0     0                    51217.257903 51039.7535  0.35%     -    2s
H    0     0                    51217.191175 51039.7535  0.35%     -    2s
     0     0 51039.7535    0   19 51217.1912 51039.7535  0.35%     -    2s
     0     0 51040.7711    0   31 51217.1912 51040.7711  0.34%     -    2s
     0     0 51044.8206    0   43 51217.1912 51044.8206  0.34%     -    3s
     0     0 51044.8206    0   31 51217.1912 51044.8206  0.34%     -    3s
     0     0 51045.7721    0   32 51217.1912 51045.7721  0.33%     -    3s
     0     0 51046.5443    0   32 51217.1912 51046.5443  0.33%     -    3s
     0     0 51047.6854    0   44 51217.1912 51047.6854  0.33%     -    3s
     0     0 51047.6854    0   44 51217.1912 51047.6854  0.33%     -    3s
     0     2 51047.6854    0   44 51217.1912 51047.6854  0.33%     -    3s
H   52    32                    51152.666037 51047.6854  0.21%   2.8    3s

Cutting planes:
  Gomory: 2
  MIR: 3
  Flow cover: 1

Explored 55 nodes (13143 simplex iterations) in 3.80 seconds (2.16 work units)
Thread count was 20 (of 80 available processors)

Solution count 10: 51152.7 51152.7 51217.2 ... 179678

Optimal solution found (tolerance 3.00e-03)
Best objective 5.115266603719e+04, best bound 5.104768542504e+04, gap 0.2052%

User-callback calls 1855, time in user-callback 0.00 sec
